benchmarks/bfuzz0/30153143931214582974185421276024961.smt2
(set-logic QF_FP)
(declare-const x0 (_ FloatingPoint 8 24))
(declare-const x1 (_ FloatingPoint 8 24))
(declare-const x2 (_ FloatingPoint 8 24))
(declare-const x3 (_ FloatingPoint 8 24))
(declare-const x4 (_ FloatingPoint 8 24))
(declare-const x5 (_ FloatingPoint 8 24))
(declare-const x6 (_ FloatingPoint 8 24))
(assert (fp.eq (fp.mul RNE (fp.add RNE x6 x4) (fp.mul RNE x6 x1)) (fp.sub RNE (fp.add RNE x5 x6) (fp.neg x0))))
(assert (fp.gt (fp.add RNE (fp.div RNE x3 x6) (fp.mul RNE x3 x3)) (fp.neg (fp.div RNE x3 x3))))
(assert (fp.gt (fp.sub RNE (fp.mul RNE x6 x1) (fp.add RNE x1 x2)) (fp.mul RNE (fp.neg x2) (fp.mul RNE x1 x6))))
(assert (fp.gt (fp.neg (fp.sub RNE x2 x6)) (fp.mul RNE (fp.mul RNE x1 x3) (fp.neg x3))))
(check-sat)
