db/data/30153143931214582974185421276024961.z3.out
sat
-------------------
72.429451143
